(set-logic QF_LRA)
(declare-fun X0 () Real )
(declare-fun Y0 () Real )
(declare-fun X1 () Real )
(declare-fun Y1 () Real )
(declare-fun X2 () Real )
(declare-fun Y2 () Real )
(declare-fun X3 () Real )
(declare-fun Y3 () Real )
(declare-fun X4 () Real )
(declare-fun Y4 () Real )
(declare-fun X5 () Real )
(declare-fun Y5 () Real )
(declare-fun X6 () Real )
(declare-fun Y6 () Real )
(declare-fun X7 () Real )
(declare-fun Y7 () Real )
(declare-fun X8 () Real )
(declare-fun Y8 () Real )
(declare-fun X9 () Real )
(declare-fun Y9 () Real )
(declare-fun X10 () Real )
(declare-fun Y10 () Real )
(declare-fun X11 () Real )
(declare-fun Y11 () Real )
(declare-fun Z () Real )
(declare-fun k () Real )
(assert (let
(( $goal (>= Z k) ))
(let
((
$phi ( and 
( or ( <= ( + X0 57 ) X1 )  ( <= ( + X1 83 ) X0 )  ( <= ( + Y0 51 ) Y1 )  ( <= ( + Y1 54 ) Y0 )  )
( or ( <= ( + X0 57 ) X2 )  ( <= ( + X2 44 ) X0 )  ( <= ( + Y0 51 ) Y2 )  ( <= ( + Y2 53 ) Y0 )  )
( or ( <= ( + X0 57 ) X3 )  ( <= ( + X3 97 ) X0 )  ( <= ( + Y0 51 ) Y3 )  ( <= ( + Y3 59 ) Y0 )  )
( or ( <= ( + X0 57 ) X4 )  ( <= ( + X4 25 ) X0 )  ( <= ( + Y0 51 ) Y4 )  ( <= ( + Y4 42 ) Y0 )  )
( or ( <= ( + X0 57 ) X5 )  ( <= ( + X5 49 ) X0 )  ( <= ( + Y0 51 ) Y5 )  ( <= ( + Y5 70 ) Y0 )  )
( or ( <= ( + X0 57 ) X6 )  ( <= ( + X6 97 ) X0 )  ( <= ( + Y0 51 ) Y6 )  ( <= ( + Y6 35 ) Y0 )  )
( or ( <= ( + X0 57 ) X7 )  ( <= ( + X7 82 ) X0 )  ( <= ( + Y0 51 ) Y7 )  ( <= ( + Y7 35 ) Y0 )  )
( or ( <= ( + X0 57 ) X8 )  ( <= ( + X8 77 ) X0 )  ( <= ( + Y0 51 ) Y8 )  ( <= ( + Y8 94 ) Y0 )  )
( or ( <= ( + X0 57 ) X9 )  ( <= ( + X9 33 ) X0 )  ( <= ( + Y0 51 ) Y9 )  ( <= ( + Y9 24 ) Y0 )  )
( or ( <= ( + X0 57 ) X10 )  ( <= ( + X10 12 ) X0 )  ( <= ( + Y0 51 ) Y10 )  ( <= ( + Y10 28 ) Y0 )  )
( or ( <= ( + X0 57 ) X11 )  ( <= ( + X11 34 ) X0 )  ( <= ( + Y0 51 ) Y11 )  ( <= ( + Y11 17 ) Y0 )  )
( or ( <= ( + X1 83 ) X2 )  ( <= ( + X2 44 ) X1 )  ( <= ( + Y1 54 ) Y2 )  ( <= ( + Y2 53 ) Y1 )  )
( or ( <= ( + X1 83 ) X3 )  ( <= ( + X3 97 ) X1 )  ( <= ( + Y1 54 ) Y3 )  ( <= ( + Y3 59 ) Y1 )  )
( or ( <= ( + X1 83 ) X4 )  ( <= ( + X4 25 ) X1 )  ( <= ( + Y1 54 ) Y4 )  ( <= ( + Y4 42 ) Y1 )  )
( or ( <= ( + X1 83 ) X5 )  ( <= ( + X5 49 ) X1 )  ( <= ( + Y1 54 ) Y5 )  ( <= ( + Y5 70 ) Y1 )  )
( or ( <= ( + X1 83 ) X6 )  ( <= ( + X6 97 ) X1 )  ( <= ( + Y1 54 ) Y6 )  ( <= ( + Y6 35 ) Y1 )  )
( or ( <= ( + X1 83 ) X7 )  ( <= ( + X7 82 ) X1 )  ( <= ( + Y1 54 ) Y7 )  ( <= ( + Y7 35 ) Y1 )  )
( or ( <= ( + X1 83 ) X8 )  ( <= ( + X8 77 ) X1 )  ( <= ( + Y1 54 ) Y8 )  ( <= ( + Y8 94 ) Y1 )  )
( or ( <= ( + X1 83 ) X9 )  ( <= ( + X9 33 ) X1 )  ( <= ( + Y1 54 ) Y9 )  ( <= ( + Y9 24 ) Y1 )  )
( or ( <= ( + X1 83 ) X10 )  ( <= ( + X10 12 ) X1 )  ( <= ( + Y1 54 ) Y10 )  ( <= ( + Y10 28 ) Y1 )  )
( or ( <= ( + X1 83 ) X11 )  ( <= ( + X11 34 ) X1 )  ( <= ( + Y1 54 ) Y11 )  ( <= ( + Y11 17 ) Y1 )  )
( or ( <= ( + X2 44 ) X3 )  ( <= ( + X3 97 ) X2 )  ( <= ( + Y2 53 ) Y3 )  ( <= ( + Y3 59 ) Y2 )  )
( or ( <= ( + X2 44 ) X4 )  ( <= ( + X4 25 ) X2 )  ( <= ( + Y2 53 ) Y4 )  ( <= ( + Y4 42 ) Y2 )  )
( or ( <= ( + X2 44 ) X5 )  ( <= ( + X5 49 ) X2 )  ( <= ( + Y2 53 ) Y5 )  ( <= ( + Y5 70 ) Y2 )  )
( or ( <= ( + X2 44 ) X6 )  ( <= ( + X6 97 ) X2 )  ( <= ( + Y2 53 ) Y6 )  ( <= ( + Y6 35 ) Y2 )  )
( or ( <= ( + X2 44 ) X7 )  ( <= ( + X7 82 ) X2 )  ( <= ( + Y2 53 ) Y7 )  ( <= ( + Y7 35 ) Y2 )  )
( or ( <= ( + X2 44 ) X8 )  ( <= ( + X8 77 ) X2 )  ( <= ( + Y2 53 ) Y8 )  ( <= ( + Y8 94 ) Y2 )  )
( or ( <= ( + X2 44 ) X9 )  ( <= ( + X9 33 ) X2 )  ( <= ( + Y2 53 ) Y9 )  ( <= ( + Y9 24 ) Y2 )  )
( or ( <= ( + X2 44 ) X10 )  ( <= ( + X10 12 ) X2 )  ( <= ( + Y2 53 ) Y10 )  ( <= ( + Y10 28 ) Y2 )  )
( or ( <= ( + X2 44 ) X11 )  ( <= ( + X11 34 ) X2 )  ( <= ( + Y2 53 ) Y11 )  ( <= ( + Y11 17 ) Y2 )  )
( or ( <= ( + X3 97 ) X4 )  ( <= ( + X4 25 ) X3 )  ( <= ( + Y3 59 ) Y4 )  ( <= ( + Y4 42 ) Y3 )  )
( or ( <= ( + X3 97 ) X5 )  ( <= ( + X5 49 ) X3 )  ( <= ( + Y3 59 ) Y5 )  ( <= ( + Y5 70 ) Y3 )  )
( or ( <= ( + X3 97 ) X6 )  ( <= ( + X6 97 ) X3 )  ( <= ( + Y3 59 ) Y6 )  ( <= ( + Y6 35 ) Y3 )  )
( or ( <= ( + X3 97 ) X7 )  ( <= ( + X7 82 ) X3 )  ( <= ( + Y3 59 ) Y7 )  ( <= ( + Y7 35 ) Y3 )  )
( or ( <= ( + X3 97 ) X8 )  ( <= ( + X8 77 ) X3 )  ( <= ( + Y3 59 ) Y8 )  ( <= ( + Y8 94 ) Y3 )  )
( or ( <= ( + X3 97 ) X9 )  ( <= ( + X9 33 ) X3 )  ( <= ( + Y3 59 ) Y9 )  ( <= ( + Y9 24 ) Y3 )  )
( or ( <= ( + X3 97 ) X10 )  ( <= ( + X10 12 ) X3 )  ( <= ( + Y3 59 ) Y10 )  ( <= ( + Y10 28 ) Y3 )  )
( or ( <= ( + X3 97 ) X11 )  ( <= ( + X11 34 ) X3 )  ( <= ( + Y3 59 ) Y11 )  ( <= ( + Y11 17 ) Y3 )  )
( or ( <= ( + X4 25 ) X5 )  ( <= ( + X5 49 ) X4 )  ( <= ( + Y4 42 ) Y5 )  ( <= ( + Y5 70 ) Y4 )  )
( or ( <= ( + X4 25 ) X6 )  ( <= ( + X6 97 ) X4 )  ( <= ( + Y4 42 ) Y6 )  ( <= ( + Y6 35 ) Y4 )  )
( or ( <= ( + X4 25 ) X7 )  ( <= ( + X7 82 ) X4 )  ( <= ( + Y4 42 ) Y7 )  ( <= ( + Y7 35 ) Y4 )  )
( or ( <= ( + X4 25 ) X8 )  ( <= ( + X8 77 ) X4 )  ( <= ( + Y4 42 ) Y8 )  ( <= ( + Y8 94 ) Y4 )  )
( or ( <= ( + X4 25 ) X9 )  ( <= ( + X9 33 ) X4 )  ( <= ( + Y4 42 ) Y9 )  ( <= ( + Y9 24 ) Y4 )  )
( or ( <= ( + X4 25 ) X10 )  ( <= ( + X10 12 ) X4 )  ( <= ( + Y4 42 ) Y10 )  ( <= ( + Y10 28 ) Y4 )  )
( or ( <= ( + X4 25 ) X11 )  ( <= ( + X11 34 ) X4 )  ( <= ( + Y4 42 ) Y11 )  ( <= ( + Y11 17 ) Y4 )  )
( or ( <= ( + X5 49 ) X6 )  ( <= ( + X6 97 ) X5 )  ( <= ( + Y5 70 ) Y6 )  ( <= ( + Y6 35 ) Y5 )  )
( or ( <= ( + X5 49 ) X7 )  ( <= ( + X7 82 ) X5 )  ( <= ( + Y5 70 ) Y7 )  ( <= ( + Y7 35 ) Y5 )  )
( or ( <= ( + X5 49 ) X8 )  ( <= ( + X8 77 ) X5 )  ( <= ( + Y5 70 ) Y8 )  ( <= ( + Y8 94 ) Y5 )  )
( or ( <= ( + X5 49 ) X9 )  ( <= ( + X9 33 ) X5 )  ( <= ( + Y5 70 ) Y9 )  ( <= ( + Y9 24 ) Y5 )  )
( or ( <= ( + X5 49 ) X10 )  ( <= ( + X10 12 ) X5 )  ( <= ( + Y5 70 ) Y10 )  ( <= ( + Y10 28 ) Y5 )  )
( or ( <= ( + X5 49 ) X11 )  ( <= ( + X11 34 ) X5 )  ( <= ( + Y5 70 ) Y11 )  ( <= ( + Y11 17 ) Y5 )  )
( or ( <= ( + X6 97 ) X7 )  ( <= ( + X7 82 ) X6 )  ( <= ( + Y6 35 ) Y7 )  ( <= ( + Y7 35 ) Y6 )  )
( or ( <= ( + X6 97 ) X8 )  ( <= ( + X8 77 ) X6 )  ( <= ( + Y6 35 ) Y8 )  ( <= ( + Y8 94 ) Y6 )  )
( or ( <= ( + X6 97 ) X9 )  ( <= ( + X9 33 ) X6 )  ( <= ( + Y6 35 ) Y9 )  ( <= ( + Y9 24 ) Y6 )  )
( or ( <= ( + X6 97 ) X10 )  ( <= ( + X10 12 ) X6 )  ( <= ( + Y6 35 ) Y10 )  ( <= ( + Y10 28 ) Y6 )  )
( or ( <= ( + X6 97 ) X11 )  ( <= ( + X11 34 ) X6 )  ( <= ( + Y6 35 ) Y11 )  ( <= ( + Y11 17 ) Y6 )  )
( or ( <= ( + X7 82 ) X8 )  ( <= ( + X8 77 ) X7 )  ( <= ( + Y7 35 ) Y8 )  ( <= ( + Y8 94 ) Y7 )  )
( or ( <= ( + X7 82 ) X9 )  ( <= ( + X9 33 ) X7 )  ( <= ( + Y7 35 ) Y9 )  ( <= ( + Y9 24 ) Y7 )  )
( or ( <= ( + X7 82 ) X10 )  ( <= ( + X10 12 ) X7 )  ( <= ( + Y7 35 ) Y10 )  ( <= ( + Y10 28 ) Y7 )  )
( or ( <= ( + X7 82 ) X11 )  ( <= ( + X11 34 ) X7 )  ( <= ( + Y7 35 ) Y11 )  ( <= ( + Y11 17 ) Y7 )  )
( or ( <= ( + X8 77 ) X9 )  ( <= ( + X9 33 ) X8 )  ( <= ( + Y8 94 ) Y9 )  ( <= ( + Y9 24 ) Y8 )  )
( or ( <= ( + X8 77 ) X10 )  ( <= ( + X10 12 ) X8 )  ( <= ( + Y8 94 ) Y10 )  ( <= ( + Y10 28 ) Y8 )  )
( or ( <= ( + X8 77 ) X11 )  ( <= ( + X11 34 ) X8 )  ( <= ( + Y8 94 ) Y11 )  ( <= ( + Y11 17 ) Y8 )  )
( or ( <= ( + X9 33 ) X10 )  ( <= ( + X10 12 ) X9 )  ( <= ( + Y9 24 ) Y10 )  ( <= ( + Y10 28 ) Y9 )  )
( or ( <= ( + X9 33 ) X11 )  ( <= ( + X11 34 ) X9 )  ( <= ( + Y9 24 ) Y11 )  ( <= ( + Y11 17 ) Y9 )  )
( or ( <= ( + X10 12 ) X11 )  ( <= ( + X11 34 ) X10 )  ( <= ( + Y10 28 ) Y11 )  ( <= ( + Y11 17 ) Y10 )  )
( >= X0 0)
( <= ( + X0 57) Z)
( >= Y0 0)
( <= ( + Y0 51 ) 100)
( >= X1 0)
( <= ( + X1 83) Z)
( >= Y1 0)
( <= ( + Y1 54 ) 100)
( >= X2 0)
( <= ( + X2 44) Z)
( >= Y2 0)
( <= ( + Y2 53 ) 100)
( >= X3 0)
( <= ( + X3 97) Z)
( >= Y3 0)
( <= ( + Y3 59 ) 100)
( >= X4 0)
( <= ( + X4 25) Z)
( >= Y4 0)
( <= ( + Y4 42 ) 100)
( >= X5 0)
( <= ( + X5 49) Z)
( >= Y5 0)
( <= ( + Y5 70 ) 100)
( >= X6 0)
( <= ( + X6 97) Z)
( >= Y6 0)
( <= ( + Y6 35 ) 100)
( >= X7 0)
( <= ( + X7 82) Z)
( >= Y7 0)
( <= ( + Y7 35 ) 100)
( >= X8 0)
( <= ( + X8 77) Z)
( >= Y8 0)
( <= ( + Y8 94 ) 100)
( >= X9 0)
( <= ( + X9 33) Z)
( >= Y9 0)
( <= ( + Y9 24 ) 100)
( >= X10 0)
( <= ( + X10 12) Z)
( >= Y10 0)
( <= ( + Y10 28 ) 100)
( >= X11 0)
( <= ( + X11 34) Z)
( >= Y11 0)
( <= ( + Y11 17 ) 100)
) )
)(=> $phi $goal))))